(set-option :produce-models true)
(set-logic QF_UF)
(declare-fun p67() Bool)
(declare-fun p51() Bool)
(declare-fun p18() Bool)
(declare-fun p31() Bool)
(declare-fun p94() Bool)
(declare-fun p74() Bool)
(declare-fun p84() Bool)
(declare-fun p0() Bool)
(declare-fun p107() Bool)
(declare-fun p54() Bool)
(declare-fun p92() Bool)
(declare-fun p13() Bool)
(declare-fun p10() Bool)
(declare-fun p104() Bool)
(declare-fun p91() Bool)
(declare-fun p113() Bool)
(declare-fun p59() Bool)
(declare-fun p39() Bool)
(declare-fun p90() Bool)
(declare-fun p65() Bool)
(declare-fun p75() Bool)
(declare-fun p14() Bool)
(declare-fun p30() Bool)
(declare-fun p32() Bool)
(declare-fun p27() Bool)
(declare-fun p56() Bool)
(declare-fun p83() Bool)
(declare-fun p9() Bool)
(declare-fun p26() Bool)
(declare-fun p17() Bool)
(declare-fun p34() Bool)
(declare-fun p22() Bool)
(declare-fun p58() Bool)
(declare-fun p29() Bool)
(declare-fun p95() Bool)
(declare-fun p28() Bool)
(declare-fun p100() Bool)
(declare-fun p23() Bool)
(declare-fun p42() Bool)
(declare-fun p3() Bool)
(declare-fun p96() Bool)
(declare-fun p20() Bool)
(declare-fun p68() Bool)
(declare-fun p16() Bool)
(declare-fun p11() Bool)
(declare-fun p50() Bool)
(declare-fun p47() Bool)
(declare-fun p6() Bool)
(declare-fun p72() Bool)
(declare-fun p48() Bool)
(declare-fun p71() Bool)
(declare-fun p19() Bool)
(declare-fun p87() Bool)
(declare-fun p53() Bool)
(declare-fun p40() Bool)
(declare-fun p60() Bool)
(declare-fun p69() Bool)
(declare-fun p97() Bool)
(declare-fun p12() Bool)
(declare-fun p36() Bool)
(declare-fun p109() Bool)
(declare-fun p4() Bool)
(declare-fun p45() Bool)
(declare-fun p25() Bool)
(declare-fun p108() Bool)
(declare-fun p79() Bool)
(declare-fun p82() Bool)
(declare-fun p61() Bool)
(declare-fun p8() Bool)
(declare-fun p63() Bool)
(declare-fun p114() Bool)
(declare-fun p55() Bool)
(declare-fun p37() Bool)
(declare-fun p5() Bool)
(declare-fun p89() Bool)
(declare-fun p78() Bool)
(declare-fun p66() Bool)
(declare-fun p62() Bool)
(declare-fun p117() Bool)
(declare-fun p103() Bool)
(declare-fun p81() Bool)
(declare-fun p7() Bool)
(declare-fun p1() Bool)
(declare-fun p24() Bool)
(declare-fun p105() Bool)
(declare-fun p21() Bool)
(declare-fun p15() Bool)
(declare-fun p38() Bool)
(declare-fun p101() Bool)
(declare-fun p99() Bool)
(declare-fun p119() Bool)
(declare-fun p80() Bool)
(declare-fun p106() Bool)
(declare-fun p41() Bool)
(declare-fun p85() Bool)
(declare-fun p115() Bool)
(declare-fun p98() Bool)
(declare-fun p57() Bool)
(declare-fun p43() Bool)
(declare-fun p52() Bool)
(declare-fun p49() Bool)
(declare-fun p110() Bool)
(declare-fun p70() Bool)
(declare-fun p73() Bool)
(declare-fun p86() Bool)
(declare-fun p116() Bool)
(declare-fun p44() Bool)
(declare-fun p77() Bool)
(declare-fun p118() Bool)
(declare-fun p33() Bool)
(declare-fun p64() Bool)
(declare-fun p46() Bool)
(declare-fun p2() Bool)
(declare-fun p112() Bool)
(declare-fun p93() Bool)
(declare-fun p35() Bool)
(declare-fun p111() Bool)
(declare-fun p102() Bool)
(declare-fun p76() Bool)
(declare-fun p88() Bool)
(assert
(and (or (not p67) p51 p18) (or p31 (not p94) (not p74)) (or p84 p0 (not p107)) (or (not p54) p92 (not p13)) (or (not p10) p104 p91) (or p113 (not p59) p39) (or p90 (not p65) (not p75)) (or (not p14) p30 p32) (or p27 p56 (not p83)) (or p9 p26 p17) (or (not p34) (not p32) p22) (or (not p58) p29 p95) (or (not p28) (not p100) (not p23)) (or (not p42) p56 p3) (or p96 p18 (not p18)) (or (not p20) p68 (not p10)) (or (not p16) (not p11) (not p50)) (or p14 (not p47) (not p84)) (or (not p6) p72 p48) (or (not p13) (not p9) p68) (or (not p71) (not p19) (not p87)) (or (not p53) (not p51) (not p113)) (or p40 p60 p90) (or p69 (not p42) (not p97)) (or (not p97) p68 (not p12)) (or (not p69) p28 p36) (or (not p36) (not p109) (not p4)) (or p60 p67 (not p45)) (or p58 p71 p25) (or p59 p108 p79) (or (not p94) (not p92) (not p82)) (or p12 p61 p34) (or p23 p12 (not p8)) (or p13 (not p63) (not p114)) (or p90 p0 (not p55)) (or p17 p37 (not p5)) (or (not p109) p89 (not p78)) (or p34 (not p66) p30) (or p28 p13 p62) (or (not p78) p94 p117) (or (not p58) (not p103) p31) (or p39 (not p81) p45) (or (not p50) p96 (not p10)) (or (not p92) p69 p81) (or p84 p39 p7) (or p40 p1 p31) (or p113 p87 (not p24)) (or p105 (not p16) (not p21)) (or p15 p50 (not p92)) (or (not p24) p38 (not p82)) (or (not p101) p117 (not p13)) (or (not p99) p27 p8) (or p91 (not p119) p80) (or p78 (not p106) (not p5)) (or (not p11) (not p42) (not p41)) (or p96 p80 (not p109)) (or p107 (not p85) p91) (or (not p53) (not p115) p98) (or p57 (not p48) p43) (or p52 p49 (not p4)) (or p90 (not p48) p38) (or p54 p80 p71) (or p5 (not p83) p63) (or (not p110) p68 (not p100)) (or (not p71) p89 p60) (or (not p70) p119 (not p73)) (or p98 (not p71) (not p91)) (or p86 p115 (not p23)) (or (not p73) (not p95) (not p51)) (or p39 p37 (not p4)) (or p79 (not p84) (not p0)) (or p95 (not p86) p98) (or p109 (not p10) p80) (or (not p116) (not p84) (not p17)) (or p115 (not p6) (not p75)) (or p117 (not p53) p24) (or p44 p38 p48) (or (not p77) (not p114) (not p118)) (or (not p92) (not p6) (not p67)) (or (not p66) p119 (not p81)) (or (not p89) p5 p65) (or (not p115) p115 p84) (or p29 p78 (not p62)) (or p27 p25 p84) (or p103 (not p29) p104) (or (not p10) (not p21) p72) (or (not p61) p49 (not p101)) (or p50 (not p20) p6) (or p31 p97 p85) (or p42 (not p108) p96) (or (not p53) p33 (not p94)) (or p64 (not p87) p46) (or (not p25) (not p43) p2) (or (not p72) (not p89) (not p64)) (or p90 (not p89) p16) (or (not p81) p52 p62) (or (not p26) p23 p90) (or (not p15) (not p12) (not p17)) (or p33 p2 (not p57)) (or (not p91) (not p3) p8) (or (not p99) p28 (not p118)) (or p21 p91 (not p118)) (or p33 (not p18) p100) (or p108 (not p112) (not p42)) (or p25 (not p93) p82) (or p4 (not p37) (not p35)) (or p9 (not p31) (not p62)) (or p31 p58 p47) (or (not p24) p60 p117) (or p62 (not p71) p36) (or p91 (not p91) p80) (or p67 (not p67) p61) (or (not p114) p46 (not p111)) (or p61 (not p90) p110) (or p17 p113 (not p40)) (or (not p48) p22 p116) (or (not p69) (not p97) p60) (or (not p117) (not p64) (not p12)) (or p12 p62 p72) (or p63 p32 p1) (or p90 (not p114) (not p94)) (or p39 p113 (not p57)) (or (not p28) p34 (not p56)) (or (not p60) p86 (not p38)) (or (not p49) (not p28) p40) (or p100 p101 p78) (or (not p50) (not p28) p112) (or (not p98) (not p0) p109) (or p82 p106 p119) (or (not p51) (not p112) (not p96)) (or (not p97) p44 p118) (or (not p36) (not p80) (not p82)) (or (not p21) p30 p90) (or p72 p117 (not p0)) (or p99 (not p107) (not p22)) (or (not p67) p98 p26) (or p74 p3 (not p1)) (or p58 (not p1) p70) (or p89 p55 (not p119)) (or (not p105) p56 p108) (or (not p36) (not p110) (not p115)) (or (not p16) p85 (not p108)) (or (not p27) (not p43) p58) (or (not p48) p41 (not p106)) (or (not p39) (not p33) p9) (or p31 p7 (not p28)) (or p69 (not p66) p14) (or p15 p71 (not p27)) (or (not p18) p56 (not p71)) (or p28 p53 (not p110)) (or (not p18) (not p83) p48) (or p50 (not p90) p17) (or (not p8) (not p61) (not p18)) (or (not p1) (not p87) (not p65)) (or (not p75) p95 p103) (or (not p93) p21 (not p10)) (or (not p47) p109 (not p52)) (or p39 p96 (not p60)) (or (not p32) p31 (not p91)) (or p6 p68 p60) (or (not p99) (not p46) (not p85)) (or (not p111) (not p24) (not p80)) (or (not p16) (not p90) (not p45)) (or p20 p63 (not p10)) (or p100 p33 (not p115)) (or p21 (not p1) (not p13)) (or p116 p59 (not p82)) (or p87 p111 (not p85)) (or p35 (not p65) (not p41)) (or p59 p20 (not p79)) (or (not p86) (not p113) (not p98)) (or p20 p83 p17) (or (not p107) (not p30) (not p53)) (or (not p118) (not p95) (not p59)) (or p87 p80 (not p78)) (or p93 (not p70) p46) (or (not p60) (not p44) (not p10)) (or p80 (not p118) p10) (or p6 (not p4) (not p102)) (or (not p115) (not p119) p39) (or p10 (not p45) (not p110)) (or p106 (not p91) (not p50)) (or (not p69) p117 (not p112)) (or p57 (not p21) (not p90)) (or p115 (not p101) (not p109)) (or p60 (not p114) p20) (or (not p109) (not p77) (not p109)) (or (not p7) p110 (not p76)) (or (not p104) p76 p116) (or (not p43) (not p69) (not p79)) (or p66 (not p109) (not p38)) (or p103 p28 p16) (or (not p114) p15 (not p1)) (or p111 (not p56) (not p95)) (or (not p10) p16 (not p68)) (or p31 p116 p12) (or p12 (not p7) (not p38)) (or p23 (not p51) (not p106)) (or (not p31) (not p103) (not p109)) (or p99 (not p19) p64) (or p65 (not p91) (not p70)) (or (not p2) (not p2) p96) (or (not p92) (not p90) (not p75)) (or p102 p110 (not p44)) (or p19 (not p34) (not p32)) (or (not p4) (not p10) (not p28)) (or p84 (not p119) (not p71)) (or p93 p93 (not p20)) (or (not p12) (not p81) (not p64)) (or (not p42) p98 (not p21)) (or p47 (not p68) (not p50)) (or p64 p59 p98) (or p34 p36 (not p76)) (or p75 (not p43) (not p19)) (or (not p22) p48 (not p77)) (or p39 p86 (not p105)) (or p42 (not p64) p27) (or (not p43) (not p62) (not p103)) (or (not p79) p56 (not p71)) (or p68 (not p78) p89) (or p38 p108 p57) (or (not p46) (not p16) p114) (or (not p98) p20 (not p100)) (or (not p82) (not p5) p108) (or (not p50) (not p24) p111) (or p6 p108 p57) (or p65 (not p89) (not p85)) (or p97 (not p66) p20) (or p90 (not p102) (not p47)) (or (not p42) (not p22) (not p98)) (or (not p79) p105 (not p74)) (or p109 p74 p54) (or (not p103) p93 (not p60)) (or p92 p111 (not p7)) (or p64 (not p53) p77) (or (not p74) (not p69) (not p47)) (or (not p15) p93 p103) (or p118 p1 (not p37)) (or p31 p52 (not p57)) (or (not p70) (not p114) p65) (or (not p116) p37 p38) (or p89 (not p49) (not p48)) (or (not p84) (not p37) (not p55)) (or p51 (not p103) (not p10)) (or (not p108) p81 (not p86)) (or p11 (not p11) p6) (or p116 p0 p17) (or (not p39) (not p63) (not p97)) (or p119 p0 p48) (or p99 (not p39) (not p77)) (or (not p91) (not p19) (not p16)) (or (not p74) p25 p102) (or p39 (not p106) p41) (or p42 p78 (not p2)) (or p85 p119 p57) (or p3 (not p73) p76) (or (not p16) (not p38) p99) (or (not p97) (not p0) p96) (or (not p99) p41 p45) (or p8 p22 (not p110)) (or p72 (not p105) (not p97)) (or p58 p14 p10) (or (not p49) p6 (not p85)) (or p47 p57 (not p3)) (or p1 p3 p63) (or (not p69) (not p23) (not p102)) (or (not p29) (not p7) (not p77)) (or p45 (not p30) (not p15)) (or (not p115) p44 (not p31)) (or (not p16) p89 p32) (or (not p90) (not p44) p72) (or (not p18) p1 (not p24)) (or p55 p36 (not p111)) (or p107 (not p85) p103) (or p90 (not p20) p33) (or (not p112) (not p110) p25) (or p109 (not p89) (not p7)) (or (not p6) p31 p46) (or p58 (not p73) p34) (or p78 p53 (not p111)) (or (not p14) p90 p24) (or p88 (not p48) (not p105)) (or (not p55) (not p42) p86) (or p45 (not p50) (not p53)) (or p109 (not p104) p72) (or (not p29) (not p90) (not p11)) (or (not p95) (not p58) (not p81)) (or p110 p70 p117) (or p88 (not p101) p17) (or p28 (not p16) (not p97)) (or (not p91) p53 (not p48)) (or p37 (not p36) p29) (or p99 (not p12) (not p25)) (or p35 (not p39) (not p118)) (or (not p89) p74 (not p43)) (or p78 p106 p44) (or (not p77) p88 p115) (or (not p9) p13 (not p59)) (or (not p79) p76 p55) (or p26 p35 p56) (or p51 p90 (not p100)) (or p47 (not p68) p1) (or p49 p89 p112) (or p31 (not p62) p22) (or p50 (not p82) p97) (or p106 p3 (not p94)) (or (not p91) p45 p20) (or p113 (not p53) (not p60)) (or (not p58) (not p63) p44) (or (not p64) p113 (not p96)) (or p35 (not p64) p59) (or p96 (not p61) (not p46)) (or (not p108) p58 p55) (or p53 (not p47) (not p1)) (or p30 p82 p35) (or p56 (not p110) p107) (or p14 p12 (not p105)) (or (not p50) p49 p88) (or p20 p89 (not p9)) (or p103 (not p22) (not p43)) (or p101 (not p48) (not p70)) (or p98 (not p8) (not p57)) (or (not p38) (not p105) p41) (or p46 (not p0) (not p87)) (or p32 p92 (not p2)) (or (not p10) p94 (not p50)) (or p11 p41 p15) (or (not p86) (not p75) p4) (or p53 p25 p28) (or p3 p103 p89) (or p26 (not p110) p94) (or p70 (not p57) (not p38)) (or (not p99) p43 p57) (or (not p69) (not p105) (not p38)) (or p90 p1 p78) (or (not p39) (not p53) (not p6)) (or p88 (not p66) (not p23)) (or p107 p63 p113) (or (not p70) p2 (not p20)) (or (not p76) (not p16) p55) (or p101 (not p103) (not p81)) (or p54 p104 p32) (or (not p92) p79 (not p89)) (or (not p49) p2 (not p10)) (or (not p69) p3 (not p98)) (or p103 p6 (not p80)) (or (not p109) (not p55) p12) (or p7 p88 (not p108)) (or p44 (not p1) (not p25)) (or (not p85) (not p30) (not p110)) (or p7 (not p112) (not p12)) (or p1 p103 p96) (or (not p27) (not p84) (not p12)) (or p80 (not p27) p83) (or p78 p48 p94) (or (not p118) p37 (not p71)) (or p57 (not p100) (not p65)) (or (not p9) (not p39) p57) (or (not p26) (not p32) (not p85)) (or p59 (not p111) (not p8)) (or p5 (not p114) (not p103)) (or p104 (not p23) p12) (or p19 p100 (not p0)) (or (not p28) (not p91) p93) (or (not p64) p75 p58) (or (not p32) p33 p40) (or (not p119) p14 (not p61)) (or p55 p35 (not p84)) (or p94 p82 (not p21)) (or p49 p29 p60) (or (not p116) (not p82) (not p60)) (or p13 p115 p14) (or (not p4) p110 p9) (or p34 p29 p105) (or (not p65) p83 p39) (or p45 (not p104) p64) (or (not p28) p34 p75) (or (not p58) p99 p27) (or (not p15) p20 (not p93)) (or (not p39) p6 p20) (or (not p101) p84 (not p11)) (or p19 p93 (not p25)) (or (not p85) p35 (not p70)) (or p74 p21 (not p74)) (or p23 p22 (not p48)) (or p58 p15 p107) (or p25 p119 (not p25)) (or p106 (not p87) (not p16)) (or (not p36) (not p112) p17) (or p70 (not p77) p31) (or (not p11) p89 p106) (or (not p97) (not p18) p51) (or p42 p15 p22) (or (not p43) (not p35) p113) (or p5 p80 (not p23)) (or p80 (not p38) (not p33)) (or (not p92) p47 (not p68)) (or (not p67) (not p66) (not p110)) (or p37 p93 p66) (or (not p51) (not p114) (not p109)) (or (not p87) (not p60) (not p30)) (or p57 p97 (not p92)) (or (not p74) (not p119) (not p73)) (or (not p63) p57 (not p53)) (or p105 p95 (not p57)) (or p66 (not p46) p80) (or p117 p9 p41) (or p112 p51 p99) (or (not p13) (not p107) (not p7)) (or p1 (not p88) p92) (or p0 (not p118) (not p90)) (or (not p35) (not p89) p38) (or (not p67) (not p48) p100) (or p14 (not p59) p5) (or (not p10) p22 p68) (or p76 p66 (not p37)) (or p77 (not p24) (not p103)) (or p67 (not p22) (not p53)) (or p99 (not p113) (not p7)) (or (not p29) p84 p79) (or p59 (not p69) (not p79)) (or (not p76) (not p28) p10) (or p18 (not p73) p40) (or (not p100) p64 p10) (or (not p23) (not p75) (not p62)) (or (not p49) (not p37) (not p98)) (or (not p20) (not p86) (not p88)) (or p111 (not p94) (not p70)) (or (not p44) p58 p27) (or (not p2) (not p72) (not p26)) (or (not p16) (not p83) p15) (or (not p111) p72 (not p20)) (or (not p24) (not p61) p112) (or (not p95) (not p63) (not p19)) (or p21 p37 (not p95)) (or p14 (not p30) (not p64)) (or (not p82) p6 (not p100)) (or p57 p47 (not p41)) (or (not p38) (not p59) p75) (or (not p62) p95 (not p112)) (or (not p78) (not p114) p42) (or (not p73) p66 (not p49)) (or (not p100) (not p48) p78) (or p63 p56 (not p104)) (or p60 p113 p79) (or p68 p35 p109) (or p10 (not p69) p56) (or p117 (not p19) p44) (or p72 p22 (not p35)) (or (not p112) (not p22) p53) (or p118 (not p75) p68) (or p27 (not p6) (not p49)) (or p44 (not p117) (not p110)) (or p71 p41 (not p76)) (or p59 p85 (not p29)) (or p88 (not p77) (not p119)) (or (not p113) (not p36) p3) (or (not p46) p114 (not p13)) (or (not p4) (not p51) (not p63)) (or p12 (not p54) (not p15)) (or (not p12) p56 p98) (or p49 p54 p49) (or (not p4) (not p98) p82) (or (not p47) (not p40) (not p101)) (or (not p52) p40 p102) (or (not p46) (not p11) (not p95)) (or p89 p49 (not p25)) (or (not p119) (not p24) (not p51)) (or (not p17) (not p71) (not p70)) (or (not p59) p19 (not p8)) (or p62 p54 (not p106)) (or (not p51) (not p97) p82) (or p104 p59 (not p57)) (or (not p62) p102 (not p52)) (or (not p32) p23 p30) (or p64 p53 (not p93)) (or p115 (not p19) p65) (or p104 (not p90) (not p37)) (or p96 (not p100) p48) (or (not p87) (not p5) (not p59)) (or p21 p118 p81) (or p29 (not p73) p31) (or (not p40) (not p0) (not p99)) (or (not p65) (not p114) (not p16)) (or (not p25) (not p86) p43) (or p11 (not p55) (not p10)) (or p106 (not p23) p109) (or (not p9) (not p14) (not p57)) (or (not p67) (not p116) p18) (or (not p70) (not p102) (not p5)) (or (not p74) (not p115) p95) (or p60 p67 p114) (or p96 (not p110) p54) (or (not p12) p88 (not p23)) (or (not p4) (not p88) (not p103)) (or (not p71) (not p62) (not p93)) (or p24 p35 (not p28)) (or (not p19) p97 (not p35)) (or (not p88) p103 (not p109)) (or (not p45) (not p105) p1) (or (not p76) (not p63) (not p20)) (or p108 (not p78) (not p88)) (or (not p26) p23 p89) (or (not p91) p107 (not p109)) (or p17 (not p57) (not p86)) (or (not p3) p54 p67) (or (not p79) (not p70) p86) (or (not p50) (not p5) p8) (or p100 (not p3) p22) (or (not p69) p35 p19) (or p2 p103 (not p88)) (or p95 (not p19) p55) (or (not p7) (not p18) p70) (or (not p37) p116 p48) (or (not p108) (not p5) p113) (or p67 (not p107) (not p73)) (or p80 p60 (not p26)) (or (not p68) (not p114) (not p39)) (or p2 p61 (not p90)) (or (not p26) (not p110) p9) (or (not p50) (not p56) (not p93)) (or (not p52) p45 (not p54)) (or (not p89) p1 (not p118)) (or p98 p9 p113) (or p84 p38 p98) (or (not p96) (not p107) (not p63)) (or p29 p8 p112) (or p50 p55 p16) (or (not p56) (not p24) (not p54)) (or p26 (not p108) p19) (or (not p24) (not p98) (not p101)) (or (not p4) (not p109) p16) (or p54 p105 p18) (or (not p105) p101 p109) (or p110 (not p0) p20) (or (not p9) p51 p6) (or (not p37) p66 p54) (or (not p29) (not p23) p97) (or (not p53) p98 p10) (or (not p15) (not p51) p94) (or (not p90) p36 (not p41)) (or (not p114) p74 (not p113)) (or p50 (not p26) (not p75)) (or (not p105) p32 (not p107)) (or (not p67) p15 p92) (or p69 p3 (not p51)) (or p102 (not p69) (not p74)) (or p99 (not p6) (not p112)) (or p36 p57 p46) (or p103 (not p103) (not p8)) (or (not p24) (not p57) (not p2)) (or (not p113) p32 (not p109)) (or p74 p83 (not p65)) (or (not p92) p59 p28) (or p53 (not p97) (not p118)) (or p43 p43 p105) (or (not p101) p14 p106) (or (not p24) p82 (not p78)) (or p107 (not p5) (not p27)) (or p78 (not p13) p73) (or (not p7) (not p108) p8) (or (not p102) (not p90) (not p43)) (or p4 (not p95) (not p110)) (or p9 p50 p98) (or p42 p105 p19) (or p44 (not p35) p5) (or (not p85) (not p7) (not p15)) (or p98 (not p76) p24) (or (not p111) p96 (not p46)) (or p23 p36 p74) (or p110 p14 (not p69)) (or (not p45) (not p21) (not p12)) (or (not p19) (not p58) (not p38)) (or p88 p36 (not p43)) (or p101 (not p33) p36) (or (not p105) (not p107) p11) (or p28 (not p33) (not p57)) (or p113 (not p74) (not p67)) (or p115 (not p45) p34) (or (not p119) (not p95) p33) (or p112 p59 (not p59)) (or p79 (not p17) p25) (or p0 (not p9) (not p16)) (or p104 (not p74) (not p73)) (or (not p22) (not p67) (not p91)) (or (not p100) (not p36) (not p59)) (or (not p35) p33 (not p20)) (or p97 p94 p15) (or p21 (not p90) (not p84)) (or (not p80) p97 p79) (or (not p114) (not p117) (not p3)) (or p101 p62 p44) (or (not p57) (not p42) p30) (or p68 p53 p72) (or p32 p105 (not p59)) (or p88 p74 p5) (or (not p62) (not p108) p68) (or p3 (not p116) (not p2)) (or p93 (not p30) (not p63)))
)
(check-sat)
(get-model)
